Total weight: 1415.4185065940308
Route 1: 0 40 39 23 15 14 16 90 11 19 8 18 100 42 22 67 25 68 1 10 20 24 80 0 
Route 2: 0 6 45 48 47 36 88 50 3 29 33 51 30 99 61 44 38 57 41 43 46 49 64 66 77 34 35 32 70 60 89 0 
Route 3: 0 28 27 69 31 62 63 65 71 9 81 78 79 76 26 21 73 2 87 37 91 86 84 83 82 7 52 12 54 55 4 56 75 74 72 58 13 95 59 93 98 85 17 5 96 0 
Route 4: 0 94 92 97 0 
Route 5: 0 53 0 
